NAME : rbg031a.tw.1863.tour
COMMENT : Length = 1863
COMMENT : Found by LKH [Keld Helsgaun] Thu Jan 16 16:40:34 2020
TYPE : TOUR
DIMENSION : 32
TOUR_SECTION
1
4
3
2
10
6
5
7
11
9
8
14
15
13
12
20
17
16
18
22
21
19
23
24
28
29
27
26
25
30
32
31
-1
EOF
